c 13_4_checker_5cl.cnf
c
c field = 13
c formula set type = 4_checker_5cl
c
p cnf 5 6
20 
22 
26 
28 
-18 
21 
23 
27 
29 
-19 
54 
84 
114 
144 
-174 
55 
85 
115 
145 
-175 
52 
80 
108 
136 
-164 
53 
81 
109 
137 
-165 
